StudentsNr = 10;
InstructorsNr = 34;
DaysNr = 1;
SlotsPerDay = 15;
AvailabilitySlotsLenght = 5;
RoomNr = 2;
ProgrammNr = 1;
DegreeNr = 2;
RolesNr = 1;
CoursesNr = 10;
InstructorsProgramm = [{1}, {1}, {1}, {1}, {1}, {1}, {1}, {1}, {1}, {1}, {1}, {1}, {1}, {1}, {1}, {1}, {1}, {1}, {1}, {1}, {1}, {1}, {1}, {1}, {1}, {1}, {1}, {1}, {1}, {1}, {1}, {1}, {1}, {1}];
InstructorRolesPerProgramm = [|{1, 2, 4, 6, 13, 14, 15, 18, 20, 21, 22, 24, 26, 29, 30, 32, 34}|];
InstructorsAvailability = [|0, 0, 1, |1, 1, 1, |1, 1, 0, |0, 0, 0, |0, 0, 1, |1, 1, 1, |0, 1, 1, |0, 0, 0, |0, 1, 1, |0, 0, 0, |1, 0, 0, |0, 0, 1, |1, 1, 1, |1, 1, 1, |0, 1, 1, |0, 1, 1, |0, 0, 1, |0, 1, 1, |1, 1, 1, |1, 1, 1, |1, 1, 1, |1, 0, 1, |0, 1, 1, |1, 0, 1, |0, 0, 0, |0, 1, 1, |1, 1, 1, |0, 1, 1, |0, 0, 1, |1, 1, 1, |1, 1, 1, |0, 1, 1, |1, 1, 1, |1, 1, 1|];
StudentsProgramm = [1, 1, 1, 1, 1, 1, 1, 1, 1, 1];
StudentsDegree = [1, 1, 2, 2, 1, 1, 2, 1, 1, 1];
StudentsSupervisorId = [11, 23, 34, 20, 6, 25, 30, 14, 25, 8];
StudentsCourseIds = [{1, 3, 4, 5, 6, 9, 10}, {1, 2, 3, 5, 7, 8, 10}, {1, 2, 3, 4, 5, 6, 7, 8, 9, 10}, {1, 2, 3, 4, 5, 6, 7, 8, 9, 10}, {1, 3, 4, 5, 6, 8, 10}, {1, 3, 4, 5, 6, 8, 10}, {1, 2, 3, 4, 5, 6, 7, 8, 9, 10}, {1, 4, 6, 7, 8, 9, 10}, {1, 4, 5, 6, 7, 8, 9}, {1, 2, 3, 4, 7, 8, 9}];
StudentsAvailability = [|1, 1, 1, |1, 1, 1, |1, 1, 1, |1, 1, 0, |1, 1, 1, |1, 1, 1, |1, 1, 1, |1, 1, 1, |1, 0, 1, |0, 0, 1|];
TheoryticalMinCard = [0, 0, 0, 0, 0, 0, 0, 0, 0, 0];
CoursesInstructorIds = [{1, 3, 4, 6, 7, 9, 11, 12, 14, 15, 17, 18, 19, 20, 21, 22, 24, 25, 27, 29, 30, 32, 33, 34}, {1, 2, 4, 8, 10, 12, 14, 16, 22, 23, 26, 27, 28, 29, 30, 31, 34}, {8, 10, 13, 14, 18, 20, 22, 24, 25, 27, 28, 34}, {6, 10, 27}, {1, 7, 11, 12, 13, 14, 15, 17, 18, 20, 21, 22, 24, 25, 27, 28, 33}, {3, 5, 8, 18, 23, 27, 28, 30, 34}, {1, 4, 5, 6, 7, 12, 13, 14, 15, 18, 19, 24, 25, 27, 28, 33, 34}, {1, 3, 4, 5, 6, 7, 10, 12, 14, 15, 16, 17, 18, 19, 25, 27, 30, 32}, {3, 4, 7, 9, 11, 18, 20, 23, 26, 28, 29, 30, 31, 32}, {3, 6, 8, 17, 18, 20, 21, 23, 29, 32}];
RolesDemands = [12];
RolesContinuity = [];
ExamLen = [1, 1, 1, 1, 1, 1, 1, 1, 1, 1];
LunchTsMinLen = 1;
LunchStarts = [4..9];
SupervisorAvailable = 5;
OptimalLunchLenght = [2, 1];
OptimalStartTs = [2, 0];
OptimalFinishTs = [0, 15];
MinimizeRooms = 300;
RolesSoftContinuity = [|1|2|];
SameDegreeInRoom = 10;
Mergeability = 2;
